\* ODT *\
Minimize
OBJ: X0 + X1 + X10 + X11 + X12 + X13 + X14 + X15 + X2 + X3 + X4 + X5 + X6 + X7
 + X8 + X9
Subject To
Cover_0: X8 >= 1
Cover_1: X8 >= 1
Binaries
X0
X1
X10
X11
X12
X13
X14
X15
X2
X3
X4
X5
X6
X7
X8
X9
End
